#************************************************************************************
#*                   Generated by cif2cell 2.0.0 2021-08-20 22:08                   *
#*  T. Bjorkman, Comp. Phys. Commun. 182, 1183-1186 (2011). Please cite generously. *
#*                                                                                  *
#*                              Data obtained from COD                              *
#*                                    None   ()                                     *
#*             Failed to get author information, No journal information             *
#************************************************************************************
&CONTROL
 calculation='nscf',
 outdir='.',
 prefix='SnTiO3',
 pseudo_dir='.',
 verbosity='low',
 tprnfor=.true.,
 tstress=.true.,
/
&SYSTEM
  ibrav = 0
  celldm(1) = 7.20214313
  nat = 5
  ntyp = 3
  ecutwfc=50,
  ecutrho=600,
  input_dft='pbe',
  occupations='fixed',
  smearing='mv',
  degauss=0.005d0,
  nbnd=46,
/
&ELECTRONS
  conv_thr=1d-10,
  mixing_beta=0.7d0,
/
CELL_PARAMETERS {alat}
  1.004540   0.000000   0.000000
  0.000000   1.004540   0.000000
  0.000000   0.000000   1.240511
ATOMIC_SPECIES
  Ti   47.86700  Ti.pz-spn-kjpaw_psl.1.0.0.UPF
  Sn  118.71000  Sn.pz-dn-kjpaw_psl.0.2.UPF
   O   15.99900  O.pz-n-kjpaw_psl.0.1.UPF
ATOMIC_POSITIONS (crystal)
Sn            0.0000000000        0.0000000000        0.9407263382
Ti            0.5000000000        0.5000000000        0.5158352860
O             0.5000000000        0.5000000000        0.1510935541
O             0.5000000000        0.0000000000        0.6391224109
O             0.0000000000        0.5000000000        0.6391224109

K_POINTS {automatic}
 12 12 12 0 0 0
